benchmarks_vrp/CMT2/no_cluster/CMT2_4.vrp
NAME: CMT2_4
TYPE: CVRP
COMMENT: 835.26 - Cluster Nr.4
DIMENSION: 8
CAPACITY: 140
EDGE_WEIGHT_TYPE: EUC_2D
NODE_COORD_TYPE: TWOD_COORDS
NODE_COORD_SECTION: 
4 30 50
5 45 42
2 29 39
1 33 44
7 35 60
6 41 46
8 40 40
3 35 51
DEPOT_SECTION: 
8
-1
DEMAND_SECTION: 
3 16
7 1
1 20
4 33
6 18
8 0
2 12
5 30
EOF
