benchmarks_vrp/CMT2/no_cluster/CMT2_4.tour
NAME: CMT2_4 solution
TYPE: TOUR
TOUR_SECTION:
8 2 1 4 7 3 6 5 -1
-1
EOF